c Sudoku solution
p cnf 729 0
119 0
131 0
165 0
183 0
244 0
266 0
288 0
291 0
326 0
399 0
259 0
414 0
423 0
478 0
532 0
551 0
481 0
564 0
642 0
492 0
721 0
611 0
735 0
777 0
784 0
833 0
237 0
213 0
848 0
147 0
387 0
973 0
871 0
989 0
882 0
829 0
854 0
895 0
816 0
867 0
469 0
457 0
445 0
436 0
639 0
955 0
749 0
579 0
686 0
585 0
674 0
625 0
546 0
593 0
697 0
315 0
222 0
275 0
343 0
361 0
941 0
962 0
763 0
756 0
712 0
798 0
996 0
653 0
668 0
372 0
176 0
194 0
152 0
358 0
128 0
334 0
924 0
938 0
917 0
518 0
527 0
